c CNF file corresponding to a (partial) station packing problem.
p cnf 5425 229
1 2 3 4 5 6 7 8 9 10 11 12 13 14 0
-1 -2 0
-1 -3 0
-1 -4 0
-1 -5 0
-1 -6 0
-1 -7 0
-1 -8 0
-1 -9 0
-1 -10 0
-1 -11 0
-1 -12 0
-1 -13 0
-1 -14 0
-2 -3 0
-2 -4 0
-2 -5 0
-2 -6 0
-2 -7 0
-2 -8 0
-2 -9 0
-2 -10 0
-2 -11 0
-2 -12 0
-2 -13 0
-2 -14 0
-3 -4 0
-3 -5 0
-3 -6 0
-3 -7 0
-3 -8 0
-3 -9 0
-3 -10 0
-3 -11 0
-3 -12 0
-3 -13 0
-3 -14 0
-4 -5 0
-4 -6 0
-4 -7 0
-4 -8 0
-4 -9 0
-4 -10 0
-4 -11 0
-4 -12 0
-4 -13 0
-4 -14 0
-5 -6 0
-5 -7 0
-5 -8 0
-5 -9 0
-5 -10 0
-5 -11 0
-5 -12 0
-5 -13 0
-5 -14 0
-6 -7 0
-6 -8 0
-6 -9 0
-6 -10 0
-6 -11 0
-6 -12 0
-6 -13 0
-6 -14 0
-7 -8 0
-7 -9 0
-7 -10 0
-7 -11 0
-7 -12 0
-7 -13 0
-7 -14 0
-8 -9 0
-8 -10 0
-8 -11 0
-8 -12 0
-8 -13 0
-8 -14 0
-9 -10 0
-9 -11 0
-9 -12 0
-9 -13 0
-9 -14 0
-10 -11 0
-10 -12 0
-10 -13 0
-10 -14 0
-11 -12 0
-11 -13 0
-11 -14 0
-12 -13 0
-12 -14 0
-13 -14 0
5409 5410 5411 5412 5413 5414 5415 5416 5417 5418 5419 5420 5421 5422 5423 5424 5425 0
-5409 -5410 0
-5409 -5411 0
-5409 -5412 0
-5409 -5413 0
-5409 -5414 0
-5409 -5415 0
-5409 -5416 0
-5409 -5417 0
-5409 -5418 0
-5409 -5419 0
-5409 -5420 0
-5409 -5421 0
-5409 -5422 0
-5409 -5423 0
-5409 -5424 0
-5409 -5425 0
-5410 -5411 0
-5410 -5412 0
-5410 -5413 0
-5410 -5414 0
-5410 -5415 0
-5410 -5416 0
-5410 -5417 0
-5410 -5418 0
-5410 -5419 0
-5410 -5420 0
-5410 -5421 0
-5410 -5422 0
-5410 -5423 0
-5410 -5424 0
-5410 -5425 0
-5411 -5412 0
-5411 -5413 0
-5411 -5414 0
-5411 -5415 0
-5411 -5416 0
-5411 -5417 0
-5411 -5418 0
-5411 -5419 0
-5411 -5420 0
-5411 -5421 0
-5411 -5422 0
-5411 -5423 0
-5411 -5424 0
-5411 -5425 0
-5412 -5413 0
-5412 -5414 0
-5412 -5415 0
-5412 -5416 0
-5412 -5417 0
-5412 -5418 0
-5412 -5419 0
-5412 -5420 0
-5412 -5421 0
-5412 -5422 0
-5412 -5423 0
-5412 -5424 0
-5412 -5425 0
-5413 -5414 0
-5413 -5415 0
-5413 -5416 0
-5413 -5417 0
-5413 -5418 0
-5413 -5419 0
-5413 -5420 0
-5413 -5421 0
-5413 -5422 0
-5413 -5423 0
-5413 -5424 0
-5413 -5425 0
-5414 -5415 0
-5414 -5416 0
-5414 -5417 0
-5414 -5418 0
-5414 -5419 0
-5414 -5420 0
-5414 -5421 0
-5414 -5422 0
-5414 -5423 0
-5414 -5424 0
-5414 -5425 0
-5415 -5416 0
-5415 -5417 0
-5415 -5418 0
-5415 -5419 0
-5415 -5420 0
-5415 -5421 0
-5415 -5422 0
-5415 -5423 0
-5415 -5424 0
-5415 -5425 0
-5416 -5417 0
-5416 -5418 0
-5416 -5419 0
-5416 -5420 0
-5416 -5421 0
-5416 -5422 0
-5416 -5423 0
-5416 -5424 0
-5416 -5425 0
-5417 -5418 0
-5417 -5419 0
-5417 -5420 0
-5417 -5421 0
-5417 -5422 0
-5417 -5423 0
-5417 -5424 0
-5417 -5425 0
-5418 -5419 0
-5418 -5420 0
-5418 -5421 0
-5418 -5422 0
-5418 -5423 0
-5418 -5424 0
-5418 -5425 0
-5419 -5420 0
-5419 -5421 0
-5419 -5422 0
-5419 -5423 0
-5419 -5424 0
-5419 -5425 0
-5420 -5421 0
-5420 -5422 0
-5420 -5423 0
-5420 -5424 0
-5420 -5425 0
-5421 -5422 0
-5421 -5423 0
-5421 -5424 0
-5421 -5425 0
-5422 -5423 0
-5422 -5424 0
-5422 -5425 0
-5423 -5424 0
-5423 -5425 0
-5424 -5425 0
